; benchmark generated from python API
(set-info :status unknown)
(declare-fun cell_1_3 () Int)
(declare-fun cell_2_4 () Int)
(declare-fun cell_3_8 () Int)
(declare-fun cell_4_1 () Int)
(declare-fun cell_5_9 () Int)
(declare-fun cell_6_6 () Int)
(declare-fun cell_7_2 () Int)
(declare-fun cell_1_1 () Int)
(declare-fun cell_2_1 () Int)
(declare-fun cell_3_1 () Int)
(declare-fun cell_5_1 () Int)
(declare-fun cell_6_1 () Int)
(declare-fun cell_7_1 () Int)
(declare-fun cell_8_1 () Int)
(declare-fun cell_9_1 () Int)
(declare-fun cell_1_2 () Int)
(declare-fun cell_2_2 () Int)
(declare-fun cell_3_2 () Int)
(declare-fun cell_4_2 () Int)
(declare-fun cell_5_2 () Int)
(declare-fun cell_6_2 () Int)
(declare-fun cell_8_2 () Int)
(declare-fun cell_9_2 () Int)
(declare-fun cell_2_3 () Int)
(declare-fun cell_3_3 () Int)
(declare-fun cell_4_3 () Int)
(declare-fun cell_5_3 () Int)
(declare-fun cell_6_3 () Int)
(declare-fun cell_7_3 () Int)
(declare-fun cell_8_3 () Int)
(declare-fun cell_9_3 () Int)
(declare-fun cell_1_4 () Int)
(declare-fun cell_3_4 () Int)
(declare-fun cell_4_4 () Int)
(declare-fun cell_5_4 () Int)
(declare-fun cell_6_4 () Int)
(declare-fun cell_7_4 () Int)
(declare-fun cell_8_4 () Int)
(declare-fun cell_9_4 () Int)
(declare-fun cell_1_5 () Int)
(declare-fun cell_2_5 () Int)
(declare-fun cell_3_5 () Int)
(declare-fun cell_4_5 () Int)
(declare-fun cell_5_5 () Int)
(declare-fun cell_6_5 () Int)
(declare-fun cell_7_5 () Int)
(declare-fun cell_8_5 () Int)
(declare-fun cell_9_5 () Int)
(declare-fun cell_1_6 () Int)
(declare-fun cell_2_6 () Int)
(declare-fun cell_3_6 () Int)
(declare-fun cell_4_6 () Int)
(declare-fun cell_5_6 () Int)
(declare-fun cell_7_6 () Int)
(declare-fun cell_8_6 () Int)
(declare-fun cell_9_6 () Int)
(declare-fun cell_1_7 () Int)
(declare-fun cell_2_7 () Int)
(declare-fun cell_3_7 () Int)
(declare-fun cell_4_7 () Int)
(declare-fun cell_5_7 () Int)
(declare-fun cell_6_7 () Int)
(declare-fun cell_7_7 () Int)
(declare-fun cell_8_7 () Int)
(declare-fun cell_9_7 () Int)
(declare-fun cell_1_8 () Int)
(declare-fun cell_2_8 () Int)
(declare-fun cell_4_8 () Int)
(declare-fun cell_5_8 () Int)
(declare-fun cell_6_8 () Int)
(declare-fun cell_7_8 () Int)
(declare-fun cell_8_8 () Int)
(declare-fun cell_9_8 () Int)
(declare-fun cell_1_9 () Int)
(declare-fun cell_2_9 () Int)
(declare-fun cell_3_9 () Int)
(declare-fun cell_4_9 () Int)
(declare-fun cell_6_9 () Int)
(declare-fun cell_7_9 () Int)
(declare-fun cell_8_9 () Int)
(declare-fun cell_9_9 () Int)
(assert
 (= cell_1_3 1))
(assert
 (= cell_2_4 1))
(assert
 (= cell_3_8 1))
(assert
 (= cell_4_1 1))
(assert
 (= cell_5_9 1))
(assert
 (= cell_6_6 1))
(assert
 (= cell_7_2 1))
(assert
 (let (($x2867 (= cell_1_1 9)))
 (let (($x10106 (= cell_1_1 8)))
 (let (($x8320 (= cell_1_1 7)))
 (let (($x6874 (= cell_1_1 6)))
 (let (($x638 (= cell_1_1 5)))
 (let (($x7770 (= cell_1_1 4)))
 (let (($x2617 (= cell_1_1 3)))
 (let (($x7757 (= cell_1_1 2)))
 (let (($x3447 (= cell_1_1 1)))
 (or $x3447 $x7757 $x2617 $x7770 $x638 $x6874 $x8320 $x10106 $x2867)))))))))))
(assert
 (let (($x5413 (= cell_2_1 9)))
 (let (($x1917 (= cell_2_1 8)))
 (let (($x5573 (= cell_2_1 7)))
 (let (($x4909 (= cell_2_1 6)))
 (let (($x7163 (= cell_2_1 5)))
 (let (($x8503 (= cell_2_1 4)))
 (let (($x6905 (= cell_2_1 3)))
 (let (($x1612 (= cell_2_1 2)))
 (let (($x4916 (= cell_2_1 1)))
 (or $x4916 $x1612 $x6905 $x8503 $x7163 $x4909 $x5573 $x1917 $x5413)))))))))))
(assert
 (let (($x3571 (= cell_3_1 9)))
 (let (($x9783 (= cell_3_1 8)))
 (let (($x3870 (= cell_3_1 7)))
 (let (($x7946 (= cell_3_1 6)))
 (let (($x1223 (= cell_3_1 5)))
 (let (($x3184 (= cell_3_1 4)))
 (let (($x2571 (= cell_3_1 3)))
 (let (($x8366 (= cell_3_1 2)))
 (let (($x3174 (= cell_3_1 1)))
 (or $x3174 $x8366 $x2571 $x3184 $x1223 $x7946 $x3870 $x9783 $x3571)))))))))))
(assert
 (let (($x3243 (= cell_4_1 1)))
 (or $x3243 (= cell_4_1 2) (= cell_4_1 3) (= cell_4_1 4) (= cell_4_1 5) (= cell_4_1 6) (= cell_4_1 7) (= cell_4_1 8) (= cell_4_1 9))))
(assert
 (let (($x9446 (= cell_5_1 9)))
 (let (($x10221 (= cell_5_1 8)))
 (let (($x6195 (= cell_5_1 7)))
 (let (($x8003 (= cell_5_1 6)))
 (let (($x658 (= cell_5_1 5)))
 (let (($x10034 (= cell_5_1 4)))
 (let (($x6039 (= cell_5_1 3)))
 (let (($x5026 (= cell_5_1 2)))
 (let (($x389 (= cell_5_1 1)))
 (or $x389 $x5026 $x6039 $x10034 $x658 $x8003 $x6195 $x10221 $x9446)))))))))))
(assert
 (let (($x10119 (= cell_6_1 9)))
 (let (($x4323 (= cell_6_1 8)))
 (let (($x5999 (= cell_6_1 7)))
 (let (($x1038 (= cell_6_1 6)))
 (let (($x8919 (= cell_6_1 5)))
 (let (($x4046 (= cell_6_1 4)))
 (let (($x60 (= cell_6_1 3)))
 (let (($x6197 (= cell_6_1 2)))
 (let (($x4252 (= cell_6_1 1)))
 (or $x4252 $x6197 $x60 $x4046 $x8919 $x1038 $x5999 $x4323 $x10119)))))))))))
(assert
 (let (($x4535 (= cell_7_1 9)))
 (let (($x5162 (= cell_7_1 8)))
 (let (($x9587 (= cell_7_1 7)))
 (let (($x956 (= cell_7_1 6)))
 (let (($x2391 (= cell_7_1 5)))
 (let (($x6215 (= cell_7_1 4)))
 (let (($x4604 (= cell_7_1 3)))
 (let (($x3959 (= cell_7_1 2)))
 (let (($x5202 (= cell_7_1 1)))
 (or $x5202 $x3959 $x4604 $x6215 $x2391 $x956 $x9587 $x5162 $x4535)))))))))))
(assert
 (let (($x9120 (= cell_8_1 1)))
 (or $x9120 (= cell_8_1 2) (= cell_8_1 3) (= cell_8_1 4) (= cell_8_1 5) (= cell_8_1 6) (= cell_8_1 7) (= cell_8_1 8) (= cell_8_1 9))))
(assert
 (let (($x2180 (= cell_9_1 1)))
 (or $x2180 (= cell_9_1 2) (= cell_9_1 3) (= cell_9_1 4) (= cell_9_1 5) (= cell_9_1 6) (= cell_9_1 7) (= cell_9_1 8) (= cell_9_1 9))))
(assert
 (let (($x460 (= cell_1_2 9)))
 (let (($x6097 (= cell_1_2 8)))
 (let (($x78 (= cell_1_2 7)))
 (let (($x7437 (= cell_1_2 6)))
 (let (($x4028 (= cell_1_2 5)))
 (let (($x9007 (= cell_1_2 4)))
 (let (($x3380 (= cell_1_2 3)))
 (let (($x933 (= cell_1_2 2)))
 (let (($x5068 (= cell_1_2 1)))
 (or $x5068 $x933 $x3380 $x9007 $x4028 $x7437 $x78 $x6097 $x460)))))))))))
(assert
 (let (($x1726 (= cell_2_2 9)))
 (let (($x6356 (= cell_2_2 8)))
 (let (($x4526 (= cell_2_2 7)))
 (let (($x2241 (= cell_2_2 6)))
 (let (($x6728 (= cell_2_2 5)))
 (let (($x7820 (= cell_2_2 4)))
 (let (($x943 (= cell_2_2 3)))
 (let (($x5902 (= cell_2_2 2)))
 (let (($x4508 (= cell_2_2 1)))
 (or $x4508 $x5902 $x943 $x7820 $x6728 $x2241 $x4526 $x6356 $x1726)))))))))))
(assert
 (let (($x4382 (= cell_3_2 9)))
 (let (($x9814 (= cell_3_2 8)))
 (let (($x1113 (= cell_3_2 7)))
 (let (($x5083 (= cell_3_2 6)))
 (let (($x8000 (= cell_3_2 5)))
 (let (($x1140 (= cell_3_2 4)))
 (let (($x4431 (= cell_3_2 3)))
 (let (($x9239 (= cell_3_2 2)))
 (let (($x3464 (= cell_3_2 1)))
 (or $x3464 $x9239 $x4431 $x1140 $x8000 $x5083 $x1113 $x9814 $x4382)))))))))))
(assert
 (let (($x3138 (= cell_4_2 9)))
 (let (($x5414 (= cell_4_2 8)))
 (let (($x2575 (= cell_4_2 7)))
 (let (($x656 (= cell_4_2 6)))
 (let (($x9594 (= cell_4_2 5)))
 (let (($x7761 (= cell_4_2 4)))
 (let (($x165 (= cell_4_2 3)))
 (let (($x5589 (= cell_4_2 2)))
 (let (($x8531 (= cell_4_2 1)))
 (or $x8531 $x5589 $x165 $x7761 $x9594 $x656 $x2575 $x5414 $x3138)))))))))))
(assert
 (let (($x296 (= cell_5_2 9)))
 (let (($x2736 (= cell_5_2 8)))
 (let (($x4415 (= cell_5_2 7)))
 (let (($x420 (= cell_5_2 6)))
 (let (($x3383 (= cell_5_2 5)))
 (let (($x1966 (= cell_5_2 4)))
 (let (($x3132 (= cell_5_2 3)))
 (let (($x4703 (= cell_5_2 2)))
 (let (($x2023 (= cell_5_2 1)))
 (or $x2023 $x4703 $x3132 $x1966 $x3383 $x420 $x4415 $x2736 $x296)))))))))))
(assert
 (let (($x5507 (= cell_6_2 9)))
 (let (($x3864 (= cell_6_2 8)))
 (let (($x6561 (= cell_6_2 7)))
 (let (($x2739 (= cell_6_2 6)))
 (let (($x1705 (= cell_6_2 5)))
 (let (($x1898 (= cell_6_2 4)))
 (let (($x299 (= cell_6_2 3)))
 (let (($x8164 (= cell_6_2 2)))
 (let (($x3438 (= cell_6_2 1)))
 (or $x3438 $x8164 $x299 $x1898 $x1705 $x2739 $x6561 $x3864 $x5507)))))))))))
(assert
 (let (($x1943 (= cell_7_2 1)))
 (or $x1943 (= cell_7_2 2) (= cell_7_2 3) (= cell_7_2 4) (= cell_7_2 5) (= cell_7_2 6) (= cell_7_2 7) (= cell_7_2 8) (= cell_7_2 9))))
(assert
 (let (($x2428 (= cell_8_2 1)))
 (or $x2428 (= cell_8_2 2) (= cell_8_2 3) (= cell_8_2 4) (= cell_8_2 5) (= cell_8_2 6) (= cell_8_2 7) (= cell_8_2 8) (= cell_8_2 9))))
(assert
 (let (($x923 (= cell_9_2 1)))
 (or $x923 (= cell_9_2 2) (= cell_9_2 3) (= cell_9_2 4) (= cell_9_2 5) (= cell_9_2 6) (= cell_9_2 7) (= cell_9_2 8) (= cell_9_2 9))))
(assert
 (let (($x3731 (= cell_1_3 1)))
 (or $x3731 (= cell_1_3 2) (= cell_1_3 3) (= cell_1_3 4) (= cell_1_3 5) (= cell_1_3 6) (= cell_1_3 7) (= cell_1_3 8) (= cell_1_3 9))))
(assert
 (let (($x8617 (= cell_2_3 9)))
 (let (($x8016 (= cell_2_3 8)))
 (let (($x8278 (= cell_2_3 7)))
 (let (($x8350 (= cell_2_3 6)))
 (let (($x4234 (= cell_2_3 5)))
 (let (($x109 (= cell_2_3 4)))
 (let (($x5322 (= cell_2_3 3)))
 (let (($x3921 (= cell_2_3 2)))
 (let (($x2467 (= cell_2_3 1)))
 (or $x2467 $x3921 $x5322 $x109 $x4234 $x8350 $x8278 $x8016 $x8617)))))))))))
(assert
 (let (($x6385 (= cell_3_3 9)))
 (let (($x1072 (= cell_3_3 8)))
 (let (($x2127 (= cell_3_3 7)))
 (let (($x5008 (= cell_3_3 6)))
 (let (($x8004 (= cell_3_3 5)))
 (let (($x9284 (= cell_3_3 4)))
 (let (($x9995 (= cell_3_3 3)))
 (let (($x4632 (= cell_3_3 2)))
 (let (($x6376 (= cell_3_3 1)))
 (or $x6376 $x4632 $x9995 $x9284 $x8004 $x5008 $x2127 $x1072 $x6385)))))))))))
(assert
 (let (($x7605 (= cell_4_3 1)))
 (or $x7605 (= cell_4_3 2) (= cell_4_3 3) (= cell_4_3 4) (= cell_4_3 5) (= cell_4_3 6) (= cell_4_3 7) (= cell_4_3 8) (= cell_4_3 9))))
(assert
 (let (($x1742 (= cell_5_3 9)))
 (let (($x2156 (= cell_5_3 8)))
 (let (($x8763 (= cell_5_3 7)))
 (let (($x9695 (= cell_5_3 6)))
 (let (($x5893 (= cell_5_3 5)))
 (let (($x1771 (= cell_5_3 4)))
 (let (($x1166 (= cell_5_3 3)))
 (let (($x1118 (= cell_5_3 2)))
 (let (($x9758 (= cell_5_3 1)))
 (or $x9758 $x1118 $x1166 $x1771 $x5893 $x9695 $x8763 $x2156 $x1742)))))))))))
(assert
 (let (($x3770 (= cell_6_3 9)))
 (let (($x6783 (= cell_6_3 8)))
 (let (($x5273 (= cell_6_3 7)))
 (let (($x5672 (= cell_6_3 6)))
 (let (($x8304 (= cell_6_3 5)))
 (let (($x5839 (= cell_6_3 4)))
 (let (($x215 (= cell_6_3 3)))
 (let (($x3763 (= cell_6_3 2)))
 (let (($x9913 (= cell_6_3 1)))
 (or $x9913 $x3763 $x215 $x5839 $x8304 $x5672 $x5273 $x6783 $x3770)))))))))))
(assert
 (let (($x6486 (= cell_7_3 1)))
 (or $x6486 (= cell_7_3 2) (= cell_7_3 3) (= cell_7_3 4) (= cell_7_3 5) (= cell_7_3 6) (= cell_7_3 7) (= cell_7_3 8) (= cell_7_3 9))))
(assert
 (let (($x7242 (= cell_8_3 1)))
 (or $x7242 (= cell_8_3 2) (= cell_8_3 3) (= cell_8_3 4) (= cell_8_3 5) (= cell_8_3 6) (= cell_8_3 7) (= cell_8_3 8) (= cell_8_3 9))))
(assert
 (let (($x2070 (= cell_9_3 1)))
 (or $x2070 (= cell_9_3 2) (= cell_9_3 3) (= cell_9_3 4) (= cell_9_3 5) (= cell_9_3 6) (= cell_9_3 7) (= cell_9_3 8) (= cell_9_3 9))))
(assert
 (let (($x4130 (= cell_1_4 9)))
 (let (($x9699 (= cell_1_4 8)))
 (let (($x4911 (= cell_1_4 7)))
 (let (($x3948 (= cell_1_4 6)))
 (let (($x7390 (= cell_1_4 5)))
 (let (($x3261 (= cell_1_4 4)))
 (let (($x9087 (= cell_1_4 3)))
 (let (($x2303 (= cell_1_4 2)))
 (let (($x6344 (= cell_1_4 1)))
 (or $x6344 $x2303 $x9087 $x3261 $x7390 $x3948 $x4911 $x9699 $x4130)))))))))))
(assert
 (let (($x1179 (= cell_2_4 1)))
 (or $x1179 (= cell_2_4 2) (= cell_2_4 3) (= cell_2_4 4) (= cell_2_4 5) (= cell_2_4 6) (= cell_2_4 7) (= cell_2_4 8) (= cell_2_4 9))))
(assert
 (let (($x5229 (= cell_3_4 9)))
 (let (($x5237 (= cell_3_4 8)))
 (let (($x657 (= cell_3_4 7)))
 (let (($x7628 (= cell_3_4 6)))
 (let (($x6274 (= cell_3_4 5)))
 (let (($x9761 (= cell_3_4 4)))
 (let (($x7876 (= cell_3_4 3)))
 (let (($x3169 (= cell_3_4 2)))
 (let (($x3662 (= cell_3_4 1)))
 (or $x3662 $x3169 $x7876 $x9761 $x6274 $x7628 $x657 $x5237 $x5229)))))))))))
(assert
 (let (($x2505 (= cell_4_4 9)))
 (let (($x693 (= cell_4_4 8)))
 (let (($x4445 (= cell_4_4 7)))
 (let (($x989 (= cell_4_4 6)))
 (let (($x4396 (= cell_4_4 5)))
 (let (($x2823 (= cell_4_4 4)))
 (let (($x8095 (= cell_4_4 3)))
 (let (($x1377 (= cell_4_4 2)))
 (let (($x249 (= cell_4_4 1)))
 (or $x249 $x1377 $x8095 $x2823 $x4396 $x989 $x4445 $x693 $x2505)))))))))))
(assert
 (let (($x7821 (= cell_5_4 9)))
 (let (($x8127 (= cell_5_4 8)))
 (let (($x7066 (= cell_5_4 7)))
 (let (($x8325 (= cell_5_4 6)))
 (let (($x8785 (= cell_5_4 5)))
 (let (($x8064 (= cell_5_4 4)))
 (let (($x9677 (= cell_5_4 3)))
 (let (($x4109 (= cell_5_4 2)))
 (let (($x7164 (= cell_5_4 1)))
 (or $x7164 $x4109 $x9677 $x8064 $x8785 $x8325 $x7066 $x8127 $x7821)))))))))))
(assert
 (let (($x7945 (= cell_6_4 9)))
 (let (($x24 (= cell_6_4 8)))
 (let (($x9293 (= cell_6_4 7)))
 (let (($x9439 (= cell_6_4 6)))
 (let (($x3654 (= cell_6_4 5)))
 (let (($x2887 (= cell_6_4 4)))
 (let (($x6014 (= cell_6_4 3)))
 (let (($x5200 (= cell_6_4 2)))
 (let (($x7929 (= cell_6_4 1)))
 (or $x7929 $x5200 $x6014 $x2887 $x3654 $x9439 $x9293 $x24 $x7945)))))))))))
(assert
 (let (($x7154 (= cell_7_4 1)))
 (or $x7154 (= cell_7_4 2) (= cell_7_4 3) (= cell_7_4 4) (= cell_7_4 5) (= cell_7_4 6) (= cell_7_4 7) (= cell_7_4 8) (= cell_7_4 9))))
(assert
 (let (($x5323 (= cell_8_4 1)))
 (or $x5323 (= cell_8_4 2) (= cell_8_4 3) (= cell_8_4 4) (= cell_8_4 5) (= cell_8_4 6) (= cell_8_4 7) (= cell_8_4 8) (= cell_8_4 9))))
(assert
 (let (($x4381 (= cell_9_4 1)))
 (or $x4381 (= cell_9_4 2) (= cell_9_4 3) (= cell_9_4 4) (= cell_9_4 5) (= cell_9_4 6) (= cell_9_4 7) (= cell_9_4 8) (= cell_9_4 9))))
(assert
 (let (($x4992 (= cell_1_5 9)))
 (let (($x3600 (= cell_1_5 8)))
 (let (($x639 (= cell_1_5 7)))
 (let (($x6916 (= cell_1_5 6)))
 (let (($x9248 (= cell_1_5 5)))
 (let (($x8302 (= cell_1_5 4)))
 (let (($x2685 (= cell_1_5 3)))
 (let (($x9747 (= cell_1_5 2)))
 (let (($x1936 (= cell_1_5 1)))
 (or $x1936 $x9747 $x2685 $x8302 $x9248 $x6916 $x639 $x3600 $x4992)))))))))))
(assert
 (let (($x6691 (= cell_2_5 1)))
 (or $x6691 (= cell_2_5 2) (= cell_2_5 3) (= cell_2_5 4) (= cell_2_5 5) (= cell_2_5 6) (= cell_2_5 7) (= cell_2_5 8) (= cell_2_5 9))))
(assert
 (let (($x5091 (= cell_3_5 9)))
 (let (($x4650 (= cell_3_5 8)))
 (let (($x3928 (= cell_3_5 7)))
 (let (($x9451 (= cell_3_5 6)))
 (let (($x10129 (= cell_3_5 5)))
 (let (($x1242 (= cell_3_5 4)))
 (let (($x6181 (= cell_3_5 3)))
 (let (($x9134 (= cell_3_5 2)))
 (let (($x145 (= cell_3_5 1)))
 (or $x145 $x9134 $x6181 $x1242 $x10129 $x9451 $x3928 $x4650 $x5091)))))))))))
(assert
 (let (($x7198 (= cell_4_5 9)))
 (let (($x3306 (= cell_4_5 8)))
 (let (($x9940 (= cell_4_5 7)))
 (let (($x6261 (= cell_4_5 6)))
 (let (($x4986 (= cell_4_5 5)))
 (let (($x1208 (= cell_4_5 4)))
 (let (($x3754 (= cell_4_5 3)))
 (let (($x10014 (= cell_4_5 2)))
 (let (($x9873 (= cell_4_5 1)))
 (or $x9873 $x10014 $x3754 $x1208 $x4986 $x6261 $x9940 $x3306 $x7198)))))))))))
(assert
 (let (($x6321 (= cell_5_5 9)))
 (let (($x8533 (= cell_5_5 8)))
 (let (($x7170 (= cell_5_5 7)))
 (let (($x1795 (= cell_5_5 6)))
 (let (($x3514 (= cell_5_5 5)))
 (let (($x4531 (= cell_5_5 4)))
 (let (($x9686 (= cell_5_5 3)))
 (let (($x1422 (= cell_5_5 2)))
 (let (($x2951 (= cell_5_5 1)))
 (or $x2951 $x1422 $x9686 $x4531 $x3514 $x1795 $x7170 $x8533 $x6321)))))))))))
(assert
 (let (($x2792 (= cell_6_5 9)))
 (let (($x1712 (= cell_6_5 8)))
 (let (($x1845 (= cell_6_5 7)))
 (let (($x3798 (= cell_6_5 6)))
 (let (($x10093 (= cell_6_5 5)))
 (let (($x473 (= cell_6_5 4)))
 (let (($x4456 (= cell_6_5 3)))
 (let (($x398 (= cell_6_5 2)))
 (let (($x1335 (= cell_6_5 1)))
 (or $x1335 $x398 $x4456 $x473 $x10093 $x3798 $x1845 $x1712 $x2792)))))))))))
(assert
 (let (($x3631 (= cell_7_5 1)))
 (or $x3631 (= cell_7_5 2) (= cell_7_5 3) (= cell_7_5 4) (= cell_7_5 5) (= cell_7_5 6) (= cell_7_5 7) (= cell_7_5 8) (= cell_7_5 9))))
(assert
 (let (($x414 (= cell_8_5 1)))
 (or $x414 (= cell_8_5 2) (= cell_8_5 3) (= cell_8_5 4) (= cell_8_5 5) (= cell_8_5 6) (= cell_8_5 7) (= cell_8_5 8) (= cell_8_5 9))))
(assert
 (or (= cell_9_5 1) (= cell_9_5 2) (= cell_9_5 3) (= cell_9_5 4) (= cell_9_5 5) (= cell_9_5 6) (= cell_9_5 7) (= cell_9_5 8) (= cell_9_5 9)))
(assert
 (let (($x5460 (= cell_1_6 9)))
 (let (($x4862 (= cell_1_6 8)))
 (let (($x4084 (= cell_1_6 7)))
 (let (($x6961 (= cell_1_6 6)))
 (let (($x2651 (= cell_1_6 5)))
 (let (($x9310 (= cell_1_6 4)))
 (let (($x7658 (= cell_1_6 3)))
 (let (($x4221 (= cell_1_6 2)))
 (let (($x7316 (= cell_1_6 1)))
 (or $x7316 $x4221 $x7658 $x9310 $x2651 $x6961 $x4084 $x4862 $x5460)))))))))))
(assert
 (let (($x7419 (= cell_2_6 9)))
 (let (($x9978 (= cell_2_6 8)))
 (let (($x1235 (= cell_2_6 7)))
 (let (($x4398 (= cell_2_6 6)))
 (let (($x6337 (= cell_2_6 5)))
 (let (($x1950 (= cell_2_6 4)))
 (let (($x401 (= cell_2_6 3)))
 (let (($x3800 (= cell_2_6 2)))
 (let (($x4606 (= cell_2_6 1)))
 (or $x4606 $x3800 $x401 $x1950 $x6337 $x4398 $x1235 $x9978 $x7419)))))))))))
(assert
 (let (($x6125 (= cell_3_6 9)))
 (let (($x5518 (= cell_3_6 8)))
 (let (($x8 (= cell_3_6 7)))
 (let (($x5550 (= cell_3_6 6)))
 (let (($x6233 (= cell_3_6 5)))
 (let (($x1681 (= cell_3_6 4)))
 (let (($x7909 (= cell_3_6 3)))
 (let (($x1678 (= cell_3_6 2)))
 (let (($x9664 (= cell_3_6 1)))
 (or $x9664 $x1678 $x7909 $x1681 $x6233 $x5550 $x8 $x5518 $x6125)))))))))))
(assert
 (let (($x9240 (= cell_4_6 9)))
 (let (($x5407 (= cell_4_6 8)))
 (let (($x2417 (= cell_4_6 7)))
 (let (($x1327 (= cell_4_6 6)))
 (let (($x1864 (= cell_4_6 5)))
 (let (($x10115 (= cell_4_6 4)))
 (let (($x9869 (= cell_4_6 3)))
 (let (($x6317 (= cell_4_6 2)))
 (let (($x4742 (= cell_4_6 1)))
 (or $x4742 $x6317 $x9869 $x10115 $x1864 $x1327 $x2417 $x5407 $x9240)))))))))))
(assert
 (let (($x5076 (= cell_5_6 9)))
 (let (($x6610 (= cell_5_6 8)))
 (let (($x9312 (= cell_5_6 7)))
 (let (($x1145 (= cell_5_6 6)))
 (let (($x1930 (= cell_5_6 5)))
 (let (($x920 (= cell_5_6 4)))
 (let (($x6490 (= cell_5_6 3)))
 (let (($x8159 (= cell_5_6 2)))
 (let (($x3621 (= cell_5_6 1)))
 (or $x3621 $x8159 $x6490 $x920 $x1930 $x1145 $x9312 $x6610 $x5076)))))))))))
(assert
 (let (($x3296 (= cell_6_6 1)))
 (or $x3296 (= cell_6_6 2) (= cell_6_6 3) (= cell_6_6 4) (= cell_6_6 5) (= cell_6_6 6) (= cell_6_6 7) (= cell_6_6 8) (= cell_6_6 9))))
(assert
 (let (($x6947 (= cell_7_6 1)))
 (or $x6947 (= cell_7_6 2) (= cell_7_6 3) (= cell_7_6 4) (= cell_7_6 5) (= cell_7_6 6) (= cell_7_6 7) (= cell_7_6 8) (= cell_7_6 9))))
(assert
 (let (($x6257 (= cell_8_6 1)))
 (or $x6257 (= cell_8_6 2) (= cell_8_6 3) (= cell_8_6 4) (= cell_8_6 5) (= cell_8_6 6) (= cell_8_6 7) (= cell_8_6 8) (= cell_8_6 9))))
(assert
 (let (($x9840 (= cell_9_6 1)))
 (or $x9840 (= cell_9_6 2) (= cell_9_6 3) (= cell_9_6 4) (= cell_9_6 5) (= cell_9_6 6) (= cell_9_6 7) (= cell_9_6 8) (= cell_9_6 9))))
(assert
 (let (($x5969 (= cell_1_7 9)))
 (let (($x4528 (= cell_1_7 8)))
 (let (($x10183 (= cell_1_7 7)))
 (let (($x4918 (= cell_1_7 6)))
 (let (($x9621 (= cell_1_7 5)))
 (let (($x2439 (= cell_1_7 4)))
 (let (($x250 (= cell_1_7 3)))
 (let (($x4060 (= cell_1_7 2)))
 (let (($x5556 (= cell_1_7 1)))
 (or $x5556 $x4060 $x250 $x2439 $x9621 $x4918 $x10183 $x4528 $x5969)))))))))))
(assert
 (let (($x2497 (= cell_2_7 9)))
 (let (($x3887 (= cell_2_7 8)))
 (let (($x7518 (= cell_2_7 7)))
 (let (($x6924 (= cell_2_7 6)))
 (let (($x5962 (= cell_2_7 5)))
 (let (($x7296 (= cell_2_7 4)))
 (let (($x5258 (= cell_2_7 3)))
 (let (($x3570 (= cell_2_7 2)))
 (let (($x600 (= cell_2_7 1)))
 (or $x600 $x3570 $x5258 $x7296 $x5962 $x6924 $x7518 $x3887 $x2497)))))))))))
(assert
 (let (($x2624 (= cell_3_7 9)))
 (let (($x6302 (= cell_3_7 8)))
 (let (($x430 (= cell_3_7 7)))
 (let (($x1169 (= cell_3_7 6)))
 (let (($x6940 (= cell_3_7 5)))
 (let (($x2309 (= cell_3_7 4)))
 (let (($x10243 (= cell_3_7 3)))
 (let (($x6843 (= cell_3_7 2)))
 (let (($x2549 (= cell_3_7 1)))
 (or $x2549 $x6843 $x10243 $x2309 $x6940 $x1169 $x430 $x6302 $x2624)))))))))))
(assert
 (let (($x4080 (= cell_4_7 9)))
 (let (($x7360 (= cell_4_7 8)))
 (let (($x9426 (= cell_4_7 7)))
 (let (($x10027 (= cell_4_7 6)))
 (let (($x3467 (= cell_4_7 5)))
 (let (($x2464 (= cell_4_7 4)))
 (let (($x9261 (= cell_4_7 3)))
 (let (($x94 (= cell_4_7 2)))
 (let (($x8046 (= cell_4_7 1)))
 (or $x8046 $x94 $x9261 $x2464 $x3467 $x10027 $x9426 $x7360 $x4080)))))))))))
(assert
 (let (($x3609 (= cell_5_7 9)))
 (let (($x3555 (= cell_5_7 8)))
 (let (($x7385 (= cell_5_7 7)))
 (let (($x2227 (= cell_5_7 6)))
 (let (($x8296 (= cell_5_7 5)))
 (let (($x1773 (= cell_5_7 4)))
 (let (($x7252 (= cell_5_7 3)))
 (let (($x3984 (= cell_5_7 2)))
 (let (($x2729 (= cell_5_7 1)))
 (or $x2729 $x3984 $x7252 $x1773 $x8296 $x2227 $x7385 $x3555 $x3609)))))))))))
(assert
 (let (($x2686 (= cell_6_7 1)))
 (or $x2686 (= cell_6_7 2) (= cell_6_7 3) (= cell_6_7 4) (= cell_6_7 5) (= cell_6_7 6) (= cell_6_7 7) (= cell_6_7 8) (= cell_6_7 9))))
(assert
 (let (($x2589 (= cell_7_7 1)))
 (or $x2589 (= cell_7_7 2) (= cell_7_7 3) (= cell_7_7 4) (= cell_7_7 5) (= cell_7_7 6) (= cell_7_7 7) (= cell_7_7 8) (= cell_7_7 9))))
(assert
 (or (= cell_8_7 1) (= cell_8_7 2) (= cell_8_7 3) (= cell_8_7 4) (= cell_8_7 5) (= cell_8_7 6) (= cell_8_7 7) (= cell_8_7 8) (= cell_8_7 9)))
(assert
 (or (= cell_9_7 1) (= cell_9_7 2) (= cell_9_7 3) (= cell_9_7 4) (= cell_9_7 5) (= cell_9_7 6) (= cell_9_7 7) (= cell_9_7 8) (= cell_9_7 9)))
(assert
 (let (($x4930 (= cell_1_8 9)))
 (let (($x6078 (= cell_1_8 8)))
 (let (($x6751 (= cell_1_8 7)))
 (let (($x2219 (= cell_1_8 6)))
 (let (($x6091 (= cell_1_8 5)))
 (let (($x2886 (= cell_1_8 4)))
 (let (($x1213 (= cell_1_8 3)))
 (let (($x9818 (= cell_1_8 2)))
 (let (($x5428 (= cell_1_8 1)))
 (or $x5428 $x9818 $x1213 $x2886 $x6091 $x2219 $x6751 $x6078 $x4930)))))))))))
(assert
 (let (($x6161 (= cell_2_8 9)))
 (let (($x1312 (= cell_2_8 8)))
 (let (($x9576 (= cell_2_8 7)))
 (let (($x5787 (= cell_2_8 6)))
 (let (($x1902 (= cell_2_8 5)))
 (let (($x1891 (= cell_2_8 4)))
 (let (($x3085 (= cell_2_8 3)))
 (let (($x7244 (= cell_2_8 2)))
 (let (($x2114 (= cell_2_8 1)))
 (or $x2114 $x7244 $x3085 $x1891 $x1902 $x5787 $x9576 $x1312 $x6161)))))))))))
(assert
 (let (($x6285 (= cell_3_8 1)))
 (or $x6285 (= cell_3_8 2) (= cell_3_8 3) (= cell_3_8 4) (= cell_3_8 5) (= cell_3_8 6) (= cell_3_8 7) (= cell_3_8 8) (= cell_3_8 9))))
(assert
 (let (($x7800 (= cell_4_8 9)))
 (let (($x7153 (= cell_4_8 8)))
 (let (($x6702 (= cell_4_8 7)))
 (let (($x6134 (= cell_4_8 6)))
 (let (($x7051 (= cell_4_8 5)))
 (let (($x2386 (= cell_4_8 4)))
 (let (($x3214 (= cell_4_8 3)))
 (let (($x5333 (= cell_4_8 2)))
 (let (($x6159 (= cell_4_8 1)))
 (or $x6159 $x5333 $x3214 $x2386 $x7051 $x6134 $x6702 $x7153 $x7800)))))))))))
(assert
 (let (($x2933 (= cell_5_8 9)))
 (let (($x6336 (= cell_5_8 8)))
 (let (($x6259 (= cell_5_8 7)))
 (let (($x7108 (= cell_5_8 6)))
 (let (($x5989 (= cell_5_8 5)))
 (let (($x3909 (= cell_5_8 4)))
 (let (($x4730 (= cell_5_8 3)))
 (let (($x9722 (= cell_5_8 2)))
 (let (($x4103 (= cell_5_8 1)))
 (or $x4103 $x9722 $x4730 $x3909 $x5989 $x7108 $x6259 $x6336 $x2933)))))))))))
(assert
 (let (($x1091 (= cell_6_8 1)))
 (or $x1091 (= cell_6_8 2) (= cell_6_8 3) (= cell_6_8 4) (= cell_6_8 5) (= cell_6_8 6) (= cell_6_8 7) (= cell_6_8 8) (= cell_6_8 9))))
(assert
 (let (($x9187 (= cell_7_8 1)))
 (or $x9187 (= cell_7_8 2) (= cell_7_8 3) (= cell_7_8 4) (= cell_7_8 5) (= cell_7_8 6) (= cell_7_8 7) (= cell_7_8 8) (= cell_7_8 9))))
(assert
 (let (($x6001 (= cell_8_8 1)))
 (or $x6001 (= cell_8_8 2) (= cell_8_8 3) (= cell_8_8 4) (= cell_8_8 5) (= cell_8_8 6) (= cell_8_8 7) (= cell_8_8 8) (= cell_8_8 9))))
(assert
 (let (($x7993 (= cell_9_8 1)))
 (or $x7993 (= cell_9_8 2) (= cell_9_8 3) (= cell_9_8 4) (= cell_9_8 5) (= cell_9_8 6) (= cell_9_8 7) (= cell_9_8 8) (= cell_9_8 9))))
(assert
 (let (($x6230 (= cell_1_9 9)))
 (let (($x7113 (= cell_1_9 8)))
 (let (($x5326 (= cell_1_9 7)))
 (let (($x6519 (= cell_1_9 6)))
 (let (($x8292 (= cell_1_9 5)))
 (let (($x3144 (= cell_1_9 4)))
 (let (($x1198 (= cell_1_9 3)))
 (let (($x5024 (= cell_1_9 2)))
 (let (($x8625 (= cell_1_9 1)))
 (or $x8625 $x5024 $x1198 $x3144 $x8292 $x6519 $x5326 $x7113 $x6230)))))))))))
(assert
 (let (($x6598 (= cell_2_9 9)))
 (let (($x9025 (= cell_2_9 8)))
 (let (($x4688 (= cell_2_9 7)))
 (let (($x6105 (= cell_2_9 6)))
 (let (($x4849 (= cell_2_9 5)))
 (let (($x6413 (= cell_2_9 4)))
 (let (($x5669 (= cell_2_9 3)))
 (let (($x5549 (= cell_2_9 2)))
 (let (($x2634 (= cell_2_9 1)))
 (or $x2634 $x5549 $x5669 $x6413 $x4849 $x6105 $x4688 $x9025 $x6598)))))))))))
(assert
 (let (($x100 (= cell_3_9 9)))
 (let (($x8744 (= cell_3_9 8)))
 (let (($x7043 (= cell_3_9 7)))
 (let (($x8817 (= cell_3_9 6)))
 (let (($x8952 (= cell_3_9 5)))
 (let (($x4809 (= cell_3_9 4)))
 (let (($x4157 (= cell_3_9 3)))
 (let (($x4762 (= cell_3_9 2)))
 (let (($x986 (= cell_3_9 1)))
 (or $x986 $x4762 $x4157 $x4809 $x8952 $x8817 $x7043 $x8744 $x100)))))))))))
(assert
 (let (($x7913 (= cell_4_9 9)))
 (let (($x9789 (= cell_4_9 8)))
 (let (($x7736 (= cell_4_9 7)))
 (let (($x1682 (= cell_4_9 6)))
 (let (($x5243 (= cell_4_9 5)))
 (let (($x3034 (= cell_4_9 4)))
 (let (($x692 (= cell_4_9 3)))
 (let (($x3823 (= cell_4_9 2)))
 (let (($x704 (= cell_4_9 1)))
 (or $x704 $x3823 $x692 $x3034 $x5243 $x1682 $x7736 $x9789 $x7913)))))))))))
(assert
 (let (($x6493 (= cell_5_9 1)))
 (or $x6493 (= cell_5_9 2) (= cell_5_9 3) (= cell_5_9 4) (= cell_5_9 5) (= cell_5_9 6) (= cell_5_9 7) (= cell_5_9 8) (= cell_5_9 9))))
(assert
 (let (($x9682 (= cell_6_9 1)))
 (or $x9682 (= cell_6_9 2) (= cell_6_9 3) (= cell_6_9 4) (= cell_6_9 5) (= cell_6_9 6) (= cell_6_9 7) (= cell_6_9 8) (= cell_6_9 9))))
(assert
 (let (($x6742 (= cell_7_9 1)))
 (or $x6742 (= cell_7_9 2) (= cell_7_9 3) (= cell_7_9 4) (= cell_7_9 5) (= cell_7_9 6) (= cell_7_9 7) (= cell_7_9 8) (= cell_7_9 9))))
(assert
 (let (($x4413 (= cell_8_9 1)))
 (or $x4413 (= cell_8_9 2) (= cell_8_9 3) (= cell_8_9 4) (= cell_8_9 5) (= cell_8_9 6) (= cell_8_9 7) (= cell_8_9 8) (= cell_8_9 9))))
(assert
 (let (($x8813 (= cell_9_9 1)))
 (or $x8813 (= cell_9_9 2) (= cell_9_9 3) (= cell_9_9 4) (= cell_9_9 5) (= cell_9_9 6) (= cell_9_9 7) (= cell_9_9 8) (= cell_9_9 9))))
(assert
 (and (distinct cell_1_1 cell_1_2 cell_1_3 cell_1_4 cell_1_5 cell_1_6 cell_1_7 cell_1_8 cell_1_9) true))
(assert
 (and (distinct cell_2_1 cell_2_2 cell_2_3 cell_2_4 cell_2_5 cell_2_6 cell_2_7 cell_2_8 cell_2_9) true))
(assert
 (and (distinct cell_3_1 cell_3_2 cell_3_3 cell_3_4 cell_3_5 cell_3_6 cell_3_7 cell_3_8 cell_3_9) true))
(assert
 (and (distinct cell_4_1 cell_4_2 cell_4_3 cell_4_4 cell_4_5 cell_4_6 cell_4_7 cell_4_8 cell_4_9) true))
(assert
 (and (distinct cell_5_1 cell_5_2 cell_5_3 cell_5_4 cell_5_5 cell_5_6 cell_5_7 cell_5_8 cell_5_9) true))
(assert
 (and (distinct cell_6_1 cell_6_2 cell_6_3 cell_6_4 cell_6_5 cell_6_6 cell_6_7 cell_6_8 cell_6_9) true))
(assert
 (and (distinct cell_7_1 cell_7_2 cell_7_3 cell_7_4 cell_7_5 cell_7_6 cell_7_7 cell_7_8 cell_7_9) true))
(assert
 (and (distinct cell_8_1 cell_8_2 cell_8_3 cell_8_4 cell_8_5 cell_8_6 cell_8_7 cell_8_8 cell_8_9) true))
(assert
 (and (distinct cell_9_1 cell_9_2 cell_9_3 cell_9_4 cell_9_5 cell_9_6 cell_9_7 cell_9_8 cell_9_9) true))
(assert
 (and (distinct cell_1_1 cell_2_1 cell_3_1 cell_4_1 cell_5_1 cell_6_1 cell_7_1 cell_8_1 cell_9_1) true))
(assert
 (and (distinct cell_1_2 cell_2_2 cell_3_2 cell_4_2 cell_5_2 cell_6_2 cell_7_2 cell_8_2 cell_9_2) true))
(assert
 (and (distinct cell_1_3 cell_2_3 cell_3_3 cell_4_3 cell_5_3 cell_6_3 cell_7_3 cell_8_3 cell_9_3) true))
(assert
 (and (distinct cell_1_4 cell_2_4 cell_3_4 cell_4_4 cell_5_4 cell_6_4 cell_7_4 cell_8_4 cell_9_4) true))
(assert
 (and (distinct cell_1_5 cell_2_5 cell_3_5 cell_4_5 cell_5_5 cell_6_5 cell_7_5 cell_8_5 cell_9_5) true))
(assert
 (and (distinct cell_1_6 cell_2_6 cell_3_6 cell_4_6 cell_5_6 cell_6_6 cell_7_6 cell_8_6 cell_9_6) true))
(assert
 (and (distinct cell_1_7 cell_2_7 cell_3_7 cell_4_7 cell_5_7 cell_6_7 cell_7_7 cell_8_7 cell_9_7) true))
(assert
 (and (distinct cell_1_8 cell_2_8 cell_3_8 cell_4_8 cell_5_8 cell_6_8 cell_7_8 cell_8_8 cell_9_8) true))
(assert
 (and (distinct cell_1_9 cell_2_9 cell_3_9 cell_4_9 cell_5_9 cell_6_9 cell_7_9 cell_8_9 cell_9_9) true))
(assert
 (and (distinct cell_1_1 cell_1_2 cell_1_3 cell_2_1 cell_2_2 cell_2_3 cell_3_1 cell_3_2 cell_3_3) true))
(assert
 (and (distinct cell_1_4 cell_1_5 cell_1_6 cell_2_4 cell_2_5 cell_2_6 cell_3_4 cell_3_5 cell_3_6) true))
(assert
 (and (distinct cell_1_7 cell_1_8 cell_1_9 cell_2_7 cell_2_8 cell_2_9 cell_3_7 cell_3_8 cell_3_9) true))
(assert
 (and (distinct cell_4_1 cell_4_2 cell_4_3 cell_5_1 cell_5_2 cell_5_3 cell_6_1 cell_6_2 cell_6_3) true))
(assert
 (and (distinct cell_4_4 cell_4_5 cell_4_6 cell_5_4 cell_5_5 cell_5_6 cell_6_4 cell_6_5 cell_6_6) true))
(assert
 (and (distinct cell_4_7 cell_4_8 cell_4_9 cell_5_7 cell_5_8 cell_5_9 cell_6_7 cell_6_8 cell_6_9) true))
(assert
 (and (distinct cell_7_1 cell_7_2 cell_7_3 cell_8_1 cell_8_2 cell_8_3 cell_9_1 cell_9_2 cell_9_3) true))
(assert
 (and (distinct cell_7_4 cell_7_5 cell_7_6 cell_8_4 cell_8_5 cell_8_6 cell_9_4 cell_9_5 cell_9_6) true))
(assert
 (and (distinct cell_7_7 cell_7_8 cell_7_9 cell_8_7 cell_8_8 cell_8_9 cell_9_7 cell_9_8 cell_9_9) true))
(assert
 (let (($x493 (and (distinct cell_5_9 cell_6_8 cell_7_7 cell_8_6) true)))
 (let (($x4709 (and (distinct cell_2_9 cell_3_8 cell_4_7 cell_5_6 cell_6_5 cell_7_4 cell_8_3 cell_9_2) true)))
 (let (($x3671 (and (distinct cell_1_8 cell_2_7 cell_3_6 cell_4_5 cell_5_4 cell_6_3 cell_7_2 cell_8_1) true)))
 (let (($x3320 (and (distinct cell_1_5 cell_2_4 cell_3_3 cell_4_2) true)))
 (let (($x1437 (and (distinct cell_5_1 cell_6_2 cell_7_3 cell_8_4) true)))
 (let (($x6213 (and (distinct cell_2_1 cell_3_2 cell_4_3 cell_5_4 cell_6_5 cell_7_6 cell_8_7 cell_9_8) true)))
 (let (($x9764 (and (distinct cell_1_2 cell_2_3 cell_3_4 cell_4_5 cell_5_6 cell_6_7 cell_7_8 cell_8_9) true)))
 (let (($x10245 (and (distinct cell_1_5 cell_2_6 cell_3_7 cell_4_8) true)))
 (and $x10245 $x9764 $x6213 $x1437 $x3320 $x3671 $x4709 $x493))))))))))
(assert
 (= cell_8_5 1))
(check-sat)
